Minimize 
 obj1: x(1) 
Subject To 
 c1: y(0) + y(1) + y(2) + y(3) + y(4) + y(5) + y(6) + y(7) + y(8) + y(9) + 
     y(10) = 1 
 c2: x(1) + x(2) - 33.0 y(0) >= - 33.0 
 c3: 0.7606 x(1) + 0.2394 x(2) - 33.0 y(1) >= -41.5786 
 c4: 0.0821 x(1) + 0.9179 x(2) - 33.0 y(1) >= -20.5451 
 c5: 0.8801 x(1) + 0.1199 x(2) - 33.0 y(2) >= -43.0025 
 c6: 0.078 x(1) + 0.922 x(2) - 33.0 y(2) >= -22.95 
 c7: 0.9773 x(1) + 0.0227 x(2) - 33.0 y(3) >= -42.5687 
 c8: 0.0841 x(1) + 0.9159 x(2) - 33.0 y(3) >= -25.5979 
 c9: 0.8805 x(1) + 0.1195 x(2) - 33.0 y(4) >= -38.4465 
 c10: 0.0986 x(1) + 0.9014 x(2) - 33.0 y(4) >= -28.2818 
 c11: 0.8121 x(1) + 0.1879 x(2) - 33.0 y(5) >= -35.6847 
 c12: 0.1244 x(1) + 0.8756 x(2) - 33.0 y(5) >= -30.8708 
 c13: 0.9544 x(1) + 0.0456 x(2) - 33.0 y(6) >= -33.9544 
 c14: 0.0486 x(1) + 0.9514 x(2) - 33.0 y(6) >= -33.0486 
 c15: 0.8432 x(1) + 0.1568 x(2) - 33.0 y(7) >= -31.784 
 c16: 0.2255 x(1) + 0.7745 x(2) - 33.0 y(7) >= -34.8725 
 c17: 1 x(1) + 0 x(2) - 33.0 y(8) >= -28.0 
 c18: 0 x(1) + 1 x(2) - 33.0 y(8) >= -39.0 
 c19: 1 x(1) + 0 x(2) - 33.0 y(9) >= -25.0 
 c20: 0 x(1) + 1 x(2) - 33.0 y(9) >= -42.0 
 c21: 0.9676 x(1) + 0.0324 x(2) - 33.0 y(10) >= -22.7452 
 c22: 0.147 x(1) + 0.853 x(2) - 33.0 y(10) >= -41.619 
 obj2: x(2) = 0 
Bounds 
 -16.5 <= x(1) <= 16.5 
 -16.5 <= x(2) <= 16.5 
Binaries 
 y(0)  y(1)  y(2)  y(3)  y(4)  y(5)  y(6)  y(7)  y(8)  y(9) 
 y(10) 
End